# Objective value = 3.2654399999999996e+03
I_0_0 674
I_0_1 827
I_0_2 739
I_0_3 913
I_1_0 87
I_1_1 0
I_1_2 87
I_1_3 0
I_2_0 65
I_2_1 65
I_2_2 0
I_2_3 65
I_3_0 106
I_3_1 53
I_3_2 1.0600000000000003e+02
I_3_3 5.3000000000000028e+01
I_4_0 86
I_4_1 86
I_4_2 86
I_4_3 0
I_5_0 26
I_5_1 13
I_5_2 2.6000000000000007e+01
I_5_3 1.3000000000000007e+01
q_1_0 0
q_1_1 174
q_1_2 0
q_2_0 65
q_2_1 0
q_2_2 130
q_3_0 0
q_3_1 106
q_3_2 0
q_4_0 86
q_4_1 86
q_4_2 0
q_5_0 0
q_5_1 26
q_5_2 0
y_0_0 1
y_0_1 1
y_0_2 1
y_1_0 0
y_1_1 1
y_1_2 0
y_2_0 1
y_2_1 0
y_2_2 1
y_3_0 0
y_3_1 1
y_3_2 0
y_4_0 1
y_4_1 1
y_4_2 0
y_5_0 0
y_5_1 1
y_5_2 0
x_0_1_0 0
x_0_1_1 1
x_0_1_2 0
x_0_2_0 1
x_0_2_1 0
x_0_2_2 2
x_0_3_0 0
x_0_3_1 0
x_0_3_2 0
x_0_4_0 1
x_0_4_1 1
x_0_4_2 0
x_0_5_0 0
x_0_5_1 0
x_0_5_2 0
x_1_2_0 0
x_1_2_1 0
x_1_2_2 0
x_1_3_0 0
x_1_3_1 1
x_1_3_2 0
x_1_4_0 0
x_1_4_1 0
x_1_4_2 0
x_1_5_0 0
x_1_5_1 0
x_1_5_2 0
x_2_3_0 0
x_2_3_1 0
x_2_3_2 0
x_2_4_0 1
x_2_4_1 0
x_2_4_2 0
x_2_5_0 0
x_2_5_1 0
x_2_5_2 0
x_3_4_0 0
x_3_4_1 0
x_3_4_2 0
x_3_5_0 0
x_3_5_1 1
x_3_5_2 0
x_4_5_0 0
x_4_5_1 1
x_4_5_2 0
